%BLOCK LATTICE_CART
      70.000000000000000       0.000000000000000       0.000000000000000
       0.000000000000000      70.000000000000000       0.000000000000000
       0.000000000000000       0.000000000000000      70.000000000000000
%ENDBLOCK LATTICE_CART

%BLOCK POSITIONS_FRAC
  H   0.1985775753993470    0.4713974323675090   -0.4970010261478899
  H   0.2515527988330710    0.5110625211647369   -0.4995006901679510
  H   0.2771705093179750    0.5153324491491760   -0.4872043645675190
  H   0.3394912540881420    0.4927660179428850   -0.4876365295094500
  H   0.2039649766705830    0.4392197472416830   -0.4813046143212550
  H   0.2746375535035470    0.4493190103460430   -0.4740800584362010
  H   0.2891077169762230    0.4362624129761499   -0.4896115016245930
  H   0.2215171071495800    0.5370938727740960   -0.4930220535137490
  H   0.3411016654358760    0.5448555270546410   -0.4893860270192440
  H   0.3867266571862390    0.4889891938766880   -0.5199940461139240
  H   0.3590125022455350    0.4339314434367780   -0.4746890545865350
  H   0.3423005901392640    0.5001255830964829   -0.5112699787211920
  H   0.4605712622317900    0.3984982669620620   -0.4840524024362340
  H   0.4123654511024940    0.4817109365431270   -0.5298546951755919
  H   0.4374106606523960    0.4749195545595960   -0.5247463884281390
  H   0.4462210637977120    0.5191231776299941   -0.4985187365474940
  H   0.4743803808619579    0.4586562596995490   -0.5217525895397450
  H   0.5268819351108820    0.4678065516097470   -0.5095287699353790
  H   0.5426547613709520    0.4033916996405840   -0.5066215997301170
  H   0.5633112489370560    0.4396034003534710   -0.5264954729504950
  H   0.5630238129913930    0.4613357503860480   -0.4871752011203250
  H   0.5937043730652188    0.4757462032811610   -0.4996929406198450
  H   0.5922994961748220    0.4603907537024600   -0.5212857250557870
  H   0.6243258841228860    0.4002566103373210   -0.4636606959763730
  H   0.6267594900610950    0.4619724626973950   -0.4879347425985900
  H   0.6609769370645550    0.4658202835143430   -0.4871822170630510
  H   0.7120381070046410    0.4098922870172860   -0.4750970000534040
  H   0.7412005207215300    0.4151502732474070   -0.4793402706078860
  H   0.8276788707115110    0.4216981061315920   -0.4803371251738450
  H   0.6599272279093770    0.4030784060491779   -0.4550064676759740
  H   0.7448955609708750    0.4971130232949130   -0.5176337083475640
  H   0.8033371897072900    0.5047108420109280   -0.5013541134037060
  H   0.8604529522809480    0.4791221164623110   -0.4804179157458680
  H   0.8829256388565880    0.4516591383458949   -0.5086083662977160
  H   0.5510181557374380    0.5134692834385740   -0.5073831723418720
  H   0.5692252368211720    0.5240768311211790   -0.5370122179505680
  H   0.5541276301243790    0.5491391404854490   -0.5166551270319690
  H   0.5718951857051929    0.5449482581723630   -0.4853511958046670
  H   0.5598475220405960    0.5787669649894640   -0.4848849838451200
  H   0.5726144205495150    0.5265071139918590   -0.4820831111529620
  H   0.6030944410302020    0.5263769931826760   -0.5087620054900440
  H   0.5944037002555820    0.5590820666799089   -0.5319350007638499
  H   0.6052640647603460    0.5574799776393260   -0.4829255555990790
  H   0.4888415343211490    0.3853661099173400   -0.5111497202060860
  H   0.5337191501301590    0.3798651153542220   -0.5106688686210740
  H   0.5157625107970461    0.3619711403635860   -0.5186770863139461
  H   0.5037179754510310    0.3433845167258090   -0.4682268699383850
  H   0.4935415363557190    0.3448719106523700   -0.4936978336961970
  C   0.2234092028885690    0.4934215442789819   -0.4987519222850250
  C   0.2146581109647730    0.4735249868161290   -0.4955915828951609
  C   0.2275946726729730    0.4565804118828080   -0.4902706324523700
  C   0.2493149657893960    0.4594760674153050   -0.4882437789689090
  C   0.2582667322135980    0.4791894789647090   -0.4925900967597940
  C   0.2451351057999980    0.4962882351203810   -0.4971027752748920
  C   0.2104258931290610    0.5104952728819910   -0.5036291992558170
  C   0.2801238710383909    0.4825010616642440   -0.4919111101277710
  C   0.2876572172807310    0.5029640344080280   -0.4887302637010660
  C   0.2945065520379390    0.4660479484181480   -0.4951119033920330
  C   0.3161139717127290    0.4697730815966689   -0.4932258517041530
  C   0.3234955816171480    0.4900342231837130   -0.4890368333902330
  C   0.3092639204293240    0.5066845434692420   -0.4871526657211939
  C   0.3166454562031710    0.5271105034982099   -0.4838613948902280
  C   0.3510034020800670    0.4580744455735700   -0.4961398237438320
  C   0.3589812859630290    0.4744080540149129   -0.5086064058043330
  C   0.3808043740692720    0.4770327804465669   -0.5106610944144430
  C   0.3945663733133990    0.4630327121015089   -0.5007094611425320
  C   0.3865564396310209    0.4476200260197190   -0.4873025377610681
  C   0.3648425902481160    0.4454801605622509   -0.4845870662734669
  C   0.4287110285876080    0.4478889583356570   -0.4978106144789959
  C   0.4205013350273400    0.4327275337927780   -0.4840525206499169
  C   0.4494053962096060    0.4454719276887699   -0.5053262430200380
  C   0.4595638045937500    0.4262014044651860   -0.5024564088542420
  C   0.4521950507620020    0.4120627029591429   -0.4873717009327370
  C   0.4328720376706140    0.4157309324495530   -0.4776420614245109
  C   0.4232624579936400    0.4792135635489189   -0.5179983760112230
  C   0.4255852242635250    0.4978208560777540   -0.5065075829173200
  C   0.4951172326662620    0.4256450663884870   -0.5116007070624850
  C   0.5009014569723810    0.4467913413981380   -0.5104588504377960
  C   0.5223616052482040    0.4521591617245270   -0.5095928534542910
  C   0.5376611599928330    0.4361475919280700   -0.5094330309407140
  C   0.5314360160330121    0.4151195660745350   -0.5080107402794469
  C   0.5101819890695510    0.4098750261611660   -0.5093905742563559
  C   0.5592833429929260    0.4404291443866270   -0.5107364066049749
  C   0.5667227320152140    0.4597455090651090   -0.5029597227713720
  C   0.5886424603414709    0.4613836093044480   -0.5054488056523910
  C   0.5988806613168840    0.4450544930821690   -0.4948314099947950
  C   0.5882464602276659    0.4260971884298559   -0.4921482602065070
  C   0.5975837395106440    0.4096050271085890   -0.4810699047406231
  C   0.6174861226527880    0.4123468292081260   -0.4721621058944100
  C   0.6281444091570581    0.4314543648049550   -0.4744976731966640
  C   0.6189401683671320    0.4478104640362950   -0.4860914509569720
  C   0.5714242505774491    0.4918533649999570   -0.5171640709951790
  C   0.6659559100650850    0.4357392945306440   -0.4737030186721090
  C   0.6718873342986110    0.4540342392371909   -0.4845016776778330
  C   0.6928881342145710    0.4568375092445510   -0.4906145711676460
  C   0.7076990388163250    0.4407940541737970   -0.4866519159877500
  C   0.7012599952857069    0.4218471484277209   -0.4775658355610489
  C   0.6804212776553049    0.4193582414165230   -0.4710577572295240
  C   0.6993226433724420    0.4759363414867260   -0.4998284706533490
  C   0.7206405225052280    0.4789088615057690   -0.5043897909112970
  C   0.7347616811860470    0.4634656741274120   -0.4998837423596230
  C   0.7290204817541250    0.4442397075376000   -0.4910324289018080
  C   0.7551309311004940    0.4694876069554680   -0.5030936194112290
  C   0.7707954989094709    0.4554297287922260   -0.4972291303952600
  C   0.7658173903559080    0.4358444354774019   -0.4889199004015560
  C   0.7448617047714180    0.4296632395013900   -0.4857640966093330
  C   0.7924886091937871    0.4572533347002660   -0.4969525910689760
  C   0.8054204442944970    0.4740339283176220   -0.5022926730810570
  C   0.8271780705896270    0.4717586117855390   -0.4988058800003890
  C   0.8354540410152329    0.4520725568946750   -0.4922053684530049
  C   0.8218112225069940    0.4357694673243770   -0.4860745653743009
  C   0.8002707672499551    0.4387923731298130   -0.4886431989483430
  C   0.8401260778620580    0.4894983884355529   -0.5009845608157970
  C   0.8571502665923740    0.4479989176156270   -0.4922900661036709
  C   0.5671566482145281    0.5116250781765399   -0.5085243041467370
  C   0.5754461206485350    0.5267702531348310   -0.5222059308814930
  C   0.5703350352764459    0.5475169135571080   -0.5167412622363700
  C   0.5782807488490950    0.5539889933194550   -0.4972638724233530
  C   0.5726747520276110    0.5750413014981038   -0.4941976622062720
  C   0.5189544020634140    0.3736205606914170   -0.5077680196103470
  C   0.5182710302600180    0.3651153051121280   -0.4875130129954840
  N   0.4157620223102150    0.4638368948924169   -0.5048357438567080
  N   0.5686853723527110    0.4237349589934710   -0.5007916718736689
  N   0.5041237912212260    0.3891676666374170   -0.5092851458315510
  N   0.5039226356284650    0.3497519804657430   -0.4827386047142689
  O   0.2188864005984590    0.4372980954727139   -0.4863071412790110
  O   0.2613960651498170    0.4434052827882600   -0.4805039613480289
  O   0.2877256209056610    0.4466209961692390   -0.5015452160085480
  O   0.3298901191634400    0.4534332952086220   -0.4960319381458260
  O   0.1891125458739500    0.5076656225957419   -0.5054560381076610
  O   0.2189999263427920    0.5300001651727390   -0.5069750764423260
  O   0.3026964486775300    0.5435051468465451   -0.4822930425240680
  O   0.3378498419126680    0.5308534578309690   -0.4827122875886180
  O   0.3455402606432280    0.4871125042882260   -0.5197218002658000
  O   0.3999516357670390    0.4337794121984669   -0.4777228923518900
  O   0.4090684996869870    0.5116357944156650   -0.5050120992823520
  O   0.4449442183670050    0.5033193810017750   -0.4987032578795720
  O   0.4254191065274290    0.4019063551635680   -0.4628370519459740
  O   0.4594731957732690    0.4610107137115629   -0.5165011753259891
  O   0.4748970458131450    0.4201177304909800   -0.5162563966339340
  O   0.4855020335879761    0.4619892742995270   -0.5108100322789150
  O   0.5871698974853480    0.3908401664060890   -0.4787731829547670
  O   0.5574879854791820    0.4755425117390390   -0.5144587029949310
  O   0.5880173407346889    0.4894378035299650   -0.5307270933660490
  O   0.6467407301775890    0.4343047920339430   -0.4638444479564350
  O   0.6743155641326910    0.4010926826573600   -0.4613617912815630
  O   0.6849555475858670    0.4914983330251240   -0.5038981423443640
  O   0.7295129022019979    0.4971536729472941   -0.5121001374226200
  O   0.7576770714760850    0.4894508651672840   -0.5109730706838880
  O   0.7840157842500440    0.4251774436229910   -0.4836251250162760
  O   0.7971216190868010    0.4925987935526889   -0.5094818979224920
  O   0.8323870833613140    0.5072801539553921   -0.5104228845842890
  O   0.8596967931389250    0.4900347469121850   -0.4919015310867851
  O   0.8645758583702980    0.4300919974691830   -0.4828442129128410
  O   0.8707604745125540    0.4604332328766620   -0.5034642220293569
  O   0.5761466647572289    0.5126999689975210   -0.4889649508239221
  O   0.5968778479997020    0.5245345429432420   -0.5232262891905470
  O   0.5786120901654710    0.5605296210403570   -0.5318707651824980
  O   0.5998053801764679    0.5524386844846990   -0.4969358401666810
  O   0.5852042476308749    0.5907609935312960   -0.5019831659978828
  O   0.5327400243613180    0.3713270842318080   -0.4727584495192240
%ENDBLOCK POSITIONS_FRAC

%BLOCK KPOINTS_LIST
   0.0000000000000000    0.0000000000000000    0.0000000000000000       1.000000000000000
%ENDBLOCK KPOINTS_LIST

FIX_ALL_CELL : true

FIX_COM : false
%BLOCK IONIC_CONSTRAINTS
%ENDBLOCK IONIC_CONSTRAINTS

%BLOCK EXTERNAL_EFIELD
    0.0000000000     0.0000000000     0.0000000000 
%ENDBLOCK EXTERNAL_EFIELD

%BLOCK EXTERNAL_PRESSURE
    0.0000000000    0.0000000000    0.0000000000
                    0.0000000000    0.0000000000
                                    0.0000000000
%ENDBLOCK EXTERNAL_PRESSURE

%BLOCK SPECIES_MASS
       H      1.0080000162
       C     12.0109996796
       N     14.0069999695
       O     15.9989995956
%ENDBLOCK SPECIES_MASS

%BLOCK SPECIES_POT
       H  H_00PBE.usp
       C  C_00PBE.usp
       N  N_00PBE.usp
       O  O_00PBE.usp
%ENDBLOCK SPECIES_POT

%BLOCK SPECIES_LCAO_STATES
       H         1
       C         2
       N         2
       O         2
%ENDBLOCK SPECIES_LCAO_STATES

